

******************************************************************************
This program contains Ipopt, a library for large-scale nonlinear optimization.
 Ipopt is released as open source code under the Eclipse Public License (EPL).
         For more information visit http://projects.coin-or.org/Ipopt
******************************************************************************

This is Ipopt version 3.12.8, running with linear solver mumps.
NOTE: Other linear solvers might be more efficient (see Ipopt documentation).

Number of nonzeros in equality constraint Jacobian...:        0
Number of nonzeros in inequality constraint Jacobian.:        0
Number of nonzeros in Lagrangian Hessian.............:       10

Total number of variables............................:        4
                     variables with only lower bounds:        3
                variables with lower and upper bounds:        0
                     variables with only upper bounds:        0
Total number of equality constraints.................:        0
Total number of inequality constraints...............:        0
        inequality constraints with only lower bounds:        0
   inequality constraints with lower and upper bounds:        0
        inequality constraints with only upper bounds:        0

iter    objective    inf_pr   inf_du lg(mu)  ||d||  lg(rg) alpha_du alpha_pr  ls
   0  1.4077852e+04 0.00e+00 1.00e+02  -1.0 0.00e+00    -  0.00e+00 0.00e+00   0
   1  1.2708557e+04 0.00e+00 9.38e+01  -1.0 9.39e-01   2.0 9.27e-01 1.00e+00f  1
   2  9.5080869e+03 0.00e+00 1.19e+02  -1.0 2.33e+00   1.5 1.00e+00 1.00e+00f  1
   3  5.4703289e+03 0.00e+00 4.97e+01  -1.0 4.49e+00   1.0 1.00e+00 1.00e+00f  1
   4  4.5371746e+03 0.00e+00 4.17e+01  -1.0 1.41e+00   1.5 1.00e+00 1.00e+00f  1
   5  4.0382727e+03 0.00e+00 7.82e+01  -1.0 2.89e+00   1.0 1.00e+00 2.82e-01f  2
   6  3.4335689e+03 0.00e+00 3.11e+01  -1.0 1.18e+00   1.4 1.00e+00 1.00e+00f  1
   7  2.6706184e+03 0.00e+00 1.86e+01  -1.0 2.12e+00   0.9 1.00e+00 1.00e+00f  1
   8  2.2659721e+03 0.00e+00 1.37e+00  -1.0 3.04e+00    -  1.00e+00 1.00e+00f  1
   9  2.2659619e+03 0.00e+00 7.68e-01  -1.0 1.74e-01    -  1.00e+00 1.00e+00f  1
iter    objective    inf_pr   inf_du lg(mu)  ||d||  lg(rg) alpha_du alpha_pr  ls
  10  2.2659587e+03 0.00e+00 4.41e-02  -1.7 5.55e-02    -  1.00e+00 1.00e+00f  1
  11  2.2659583e+03 0.00e+00 6.82e-02  -2.5 1.17e-01    -  1.00e+00 5.00e-01f  2
  12  2.2659590e+03 0.00e+00 1.59e-01  -2.5 1.46e-01    -  1.00e+00 5.00e-01f  2
  13  2.2659583e+03 0.00e+00 7.03e-02  -2.5 6.21e-02    -  1.00e+00 1.00e+00f  1
  14  2.2659587e+03 0.00e+00 1.37e-01  -2.5 1.39e-01    -  1.00e+00 5.00e-01f  2
  15  2.2659586e+03 0.00e+00 1.39e-01  -2.5 8.75e-02    -  1.00e+00 1.00e+00f  1
  16  2.2659587e+03 0.00e+00 1.61e-01  -2.5 9.69e-02    -  1.00e+00 1.00e+00f  1
  17  2.2659586e+03 0.00e+00 1.48e-01  -2.5 9.73e-02    -  1.00e+00 1.00e+00f  1
  18  2.2659589e+03 0.00e+00 2.17e-01  -2.5 1.19e-01    -  1.00e+00 1.00e+00f  1
  19  2.2659584e+03 0.00e+00 1.23e-01  -2.5 9.85e-02    -  1.00e+00 1.00e+00f  1
iter    objective    inf_pr   inf_du lg(mu)  ||d||  lg(rg) alpha_du alpha_pr  ls
  20  2.2659609e+03 0.00e+00 4.64e-01  -2.5 1.79e-01    -  1.00e+00 1.00e+00f  1
  21  2.2659582e+03 0.00e+00 3.34e-02  -2.5 7.17e-02    -  1.00e+00 1.00e+00f  1
  22  2.2659594e+03 0.00e+00 3.70e-01  -2.5 6.42e-01    -  1.00e+00 2.50e-01f  3
  23  2.2659583e+03 0.00e+00 9.82e-02  -2.5 1.07e-01    -  1.00e+00 1.00e+00f  1
  24  2.2659594e+03 0.00e+00 4.03e-01  -2.5 3.53e-01    -  1.00e+00 5.00e-01f  2
  25  2.2659583e+03 0.00e+00 1.16e-01  -2.5 1.23e-01    -  1.00e+00 1.00e+00f  1
  26  2.2659592e+03 0.00e+00 4.34e-01  -2.5 3.88e-01    -  1.00e+00 5.00e-01f  2
  27  2.2659583e+03 0.00e+00 1.46e-01  -2.5 1.45e-01    -  1.00e+00 1.00e+00f  1
  28  2.2659590e+03 0.00e+00 4.24e-01  -2.5 4.02e-01    -  1.00e+00 5.00e-01f  2
  29  2.2659584e+03 0.00e+00 2.24e-01  -2.5 1.84e-01    -  1.00e+00 1.00e+00f  1
iter    objective    inf_pr   inf_du lg(mu)  ||d||  lg(rg) alpha_du alpha_pr  ls
  30  2.2659613e+03 0.00e+00 9.50e-01  -2.5 3.51e-01    -  1.00e+00 1.00e+00f  1
  31  2.2659582e+03 0.00e+00 5.08e-02  -2.5 1.30e-01    -  1.00e+00 1.00e+00f  1
  32  2.2659604e+03 0.00e+00 9.21e-01  -2.5 1.41e+00    -  1.00e+00 2.50e-01f  3
  33  2.2659582e+03 0.00e+00 9.89e-02  -2.5 1.68e-01    -  1.00e+00 1.00e+00f  1
  34  2.2659587e+03 0.00e+00 5.41e-01  -2.5 1.10e+00    -  1.00e+00 2.50e-01f  3
  35  2.2659586e+03 0.00e+00 4.79e-01  -2.5 3.15e-01    -  1.00e+00 1.00e+00f  1
  36  2.2659589e+03 0.00e+00 6.87e-01  -2.5 3.80e-01    -  1.00e+00 1.00e+00f  1
  37  2.2659584e+03 0.00e+00 4.11e-01  -2.5 3.21e-01    -  1.00e+00 1.00e+00f  1
  38  2.2659606e+03 0.00e+00 1.40e+00  -2.5 5.61e-01    -  1.00e+00 1.00e+00f  1
  39  2.2659582e+03 0.00e+00 1.28e-01  -2.5 2.41e-01    -  1.00e+00 1.00e+00f  1
iter    objective    inf_pr   inf_du lg(mu)  ||d||  lg(rg) alpha_du alpha_pr  ls
  40  2.2659590e+03 0.00e+00 9.65e-01  -2.5 1.83e+00    -  1.00e+00 2.50e-01f  3
  41  2.2659584e+03 0.00e+00 4.95e-01  -2.5 4.06e-01    -  1.00e+00 1.00e+00f  1
  42  2.2659614e+03 0.00e+00 2.11e+00  -2.5 7.77e-01    -  1.00e+00 1.00e+00f  1
  43  2.2659582e+03 0.00e+00 1.12e-01  -2.5 2.86e-01    -  1.00e+00 1.00e+00f  1
  44  2.2659604e+03 0.00e+00 2.05e+00  -2.5 3.12e+00    -  1.00e+00 2.50e-01f  3
  45  2.2659582e+03 0.00e+00 2.14e-01  -2.5 3.70e-01    -  1.00e+00 1.00e+00f  1
  46  2.2659588e+03 0.00e+00 1.23e+00  -2.5 2.48e+00    -  1.00e+00 2.50e-01f  3
  47  2.2659585e+03 0.00e+00 1.01e+00  -2.5 6.83e-01    -  1.00e+00 1.00e+00f  1
  48  2.2659591e+03 0.00e+00 1.67e+00  -2.5 8.77e-01    -  1.00e+00 1.00e+00f  1
  49  2.2659583e+03 0.00e+00 7.43e-01  -2.5 6.58e-01    -  1.00e+00 1.00e+00f  1
iter    objective    inf_pr   inf_du lg(mu)  ||d||  lg(rg) alpha_du alpha_pr  ls
  50  2.2659587e+03 0.00e+00 1.45e+00  -2.5 1.47e+00    -  1.00e+00 5.00e-01f  2
  51  2.2659586e+03 0.00e+00 1.47e+00  -2.5 9.27e-01    -  1.00e+00 1.00e+00f  1
  52  2.2659587e+03 0.00e+00 1.72e+00  -2.5 1.03e+00    -  1.00e+00 1.00e+00f  1
  53  2.2659586e+03 0.00e+00 1.56e+00  -2.5 1.03e+00    -  1.00e+00 1.00e+00f  1
  54  2.2659590e+03 0.00e+00 2.34e+00  -2.5 1.27e+00    -  1.00e+00 1.00e+00f  1
  55  2.2659584e+03 0.00e+00 1.27e+00  -2.5 1.03e+00    -  1.00e+00 1.00e+00f  1
  56  2.2659612e+03 0.00e+00 5.23e+00  -2.5 1.95e+00    -  1.00e+00 1.00e+00f  1
  57  2.2659582e+03 0.00e+00 2.98e-01  -2.5 7.32e-01    -  1.00e+00 1.00e+00f  1
  58  2.2659601e+03 0.00e+00 4.87e+00  -2.5 7.64e+00    -  1.00e+00 2.50e-01f  3
  59  2.2659582e+03 0.00e+00 6.38e-01  -2.5 9.79e-01    -  1.00e+00 1.00e+00f  1
iter    objective    inf_pr   inf_du lg(mu)  ||d||  lg(rg) alpha_du alpha_pr  ls
  60  2.2659586e+03 0.00e+00 2.57e+00  -2.5 5.55e+00    -  1.00e+00 2.50e-01f  3
  61  2.2659589e+03 0.00e+00 3.67e+00  -2.5 2.00e+00    -  1.00e+00 1.00e+00f  1
  62  2.2659584e+03 0.00e+00 2.02e+00  -2.5 1.63e+00    -  1.00e+00 1.00e+00f  1
  63  2.2659612e+03 0.00e+00 8.14e+00  -2.5 3.06e+00    -  1.00e+00 1.00e+00f  1
  64  2.2659582e+03 0.00e+00 4.92e-01  -2.5 1.17e+00    -  1.00e+00 1.00e+00f  1
  65  2.2659599e+03 0.00e+00 7.28e+00  -2.5 1.17e+01    -  1.00e+00 2.50e-01f  3
  66  2.2659582e+03 0.00e+00 1.14e+00  -2.5 1.60e+00    -  1.00e+00 1.00e+00f  1
  67  2.2659617e+03 0.00e+00 1.16e+01  -2.5 7.93e+00    -  1.00e+00 5.00e-01f  2
  68  2.2659582e+03 0.00e+00 4.92e-01  -2.5 1.44e+00    -  1.00e+00 1.00e+00f  1
  69  2.2659614e+03 0.00e+00 1.29e+01  -2.5 1.79e+01    -  1.00e+00 2.50e-01f  3
iter    objective    inf_pr   inf_du lg(mu)  ||d||  lg(rg) alpha_du alpha_pr  ls
  70  2.2659582e+03 0.00e+00 6.65e-01  -2.5 1.71e+00    -  1.00e+00 1.00e+00f  1
  71  2.2659603e+03 0.00e+00 1.20e+01  -2.5 1.84e+01    -  1.00e+00 2.50e-01f  3
  72  2.2659582e+03 0.00e+00 1.34e+00  -2.5 2.22e+00    -  1.00e+00 1.00e+00f  1
  73  2.2659587e+03 0.00e+00 6.87e+00  -2.5 1.42e+01    -  1.00e+00 2.50e-01f  3
  74  2.2659586e+03 0.00e+00 6.71e+00  -2.5 4.24e+00    -  1.00e+00 1.00e+00f  1
  75  2.2659587e+03 0.00e+00 7.93e+00  -2.5 4.73e+00    -  1.00e+00 1.00e+00f  1
  76  2.2659585e+03 0.00e+00 7.01e+00  -2.5 4.68e+00    -  1.00e+00 1.00e+00f  1
  77  2.2659590e+03 0.00e+00 1.10e+01  -2.5 5.89e+00    -  1.00e+00 1.00e+00f  1
  78  2.2659583e+03 0.00e+00 5.43e+00  -2.5 4.61e+00    -  1.00e+00 1.00e+00f  1
  79  2.2659621e+03 0.00e+00 2.71e+01  -2.5 9.43e+00    -  1.00e+00 1.00e+00f  1
iter    objective    inf_pr   inf_du lg(mu)  ||d||  lg(rg) alpha_du alpha_pr  ls
  80  2.2659582e+03 0.00e+00 9.21e-01  -2.5 3.12e+00    -  1.00e+00 1.00e+00f  1
  81  2.2659585e+03 0.00e+00 9.47e+00  -2.5 4.42e+01    -  1.00e+00 1.25e-01f  4
  82  2.2659597e+03 0.00e+00 2.04e+01  -2.5 9.30e+00    -  1.00e+00 1.00e+00f  1
  83  2.2659582e+03 0.00e+00 4.04e+00  -2.5 5.14e+00    -  1.00e+00 1.00e+00f  1
  84  2.2659606e+03 0.00e+00 2.95e+01  -2.5 2.21e+01    -  1.00e+00 5.00e-01f  2
  85  2.2659582e+03 0.00e+00 2.66e+00  -2.5 5.01e+00    -  1.00e+00 1.00e+00f  1
  86  2.2659590e+03 0.00e+00 1.99e+01  -2.5 3.80e+01    -  1.00e+00 2.50e-01f  3
  87  2.2659584e+03 0.00e+00 1.04e+01  -2.5 8.48e+00    -  1.00e+00 1.00e+00f  1
  88  2.2659612e+03 0.00e+00 4.27e+01  -2.5 1.60e+01    -  1.00e+00 1.00e+00f  1
  89  2.2659582e+03 0.00e+00 2.48e+00  -2.5 6.03e+00    -  1.00e+00 1.00e+00f  1
iter    objective    inf_pr   inf_du lg(mu)  ||d||  lg(rg) alpha_du alpha_pr  ls
  90  2.2659601e+03 0.00e+00 3.92e+01  -2.5 6.21e+01    -  1.00e+00 2.50e-01f  3
  91  2.2659582e+03 0.00e+00 5.45e+00  -2.5 8.13e+00    -  1.00e+00 1.00e+00f  1
  92  2.2659585e+03 0.00e+00 2.02e+01  -2.5 4.41e+01    -  1.00e+00 2.50e-01f  3
  93  2.2659591e+03 0.00e+00 3.28e+01  -2.5 1.70e+01    -  1.00e+00 1.00e+00f  1
  94  2.2659583e+03 0.00e+00 1.37e+01  -2.5 1.25e+01    -  1.00e+00 1.00e+00f  1
  95  2.2659587e+03 0.00e+00 2.92e+01  -2.5 2.93e+01    -  1.00e+00 5.00e-01f  2
  96  2.2659586e+03 0.00e+00 2.59e+01  -2.5 1.72e+01    -  1.00e+00 1.00e+00f  1
  97  2.2659590e+03 0.00e+00 3.94e+01  -2.5 2.13e+01    -  1.00e+00 1.00e+00f  1
  98  2.2659584e+03 0.00e+00 2.08e+01  -2.5 1.72e+01    -  1.00e+00 1.00e+00f  1
  99  2.2659614e+03 0.00e+00 9.06e+01  -2.5 3.32e+01    -  1.00e+00 1.00e+00f  1
iter    objective    inf_pr   inf_du lg(mu)  ||d||  lg(rg) alpha_du alpha_pr  ls
 100  2.2659582e+03 0.00e+00 4.50e+00  -2.5 1.20e+01    -  1.00e+00 1.00e+00f  1
 101  2.2659607e+03 0.00e+00 9.22e+01  -2.5 1.36e+02    -  1.00e+00 2.50e-01f  3
 102  2.2659582e+03 0.00e+00 7.82e+00  -2.5 1.51e+01    -  1.00e+00 1.00e+00f  1
 103  2.2659590e+03 0.00e+00 6.20e+01  -2.5 1.17e+02    -  1.00e+00 2.50e-01f  3
 104  2.2659583e+03 0.00e+00 2.98e+01  -2.5 2.52e+01    -  1.00e+00 1.00e+00f  1
 105  2.2659619e+03 0.00e+00 1.43e+02  -2.5 5.07e+01    -  1.00e+00 1.00e+00f  1
 106  2.2659582e+03 0.00e+00 5.46e+00  -2.5 1.72e+01    -  1.00e+00 1.00e+00f  1
 107  2.2659584e+03 0.00e+00 4.72e+01  -2.5 2.28e+02    -  1.00e+00 1.25e-01f  4
 108  2.2659602e+03 0.00e+00 1.30e+02  -2.5 5.41e+01    -  1.00e+00 1.00e+00f  1
 109  2.2659582e+03 0.00e+00 1.48e+01  -2.5 2.48e+01    -  1.00e+00 1.00e+00f  1
iter    objective    inf_pr   inf_du lg(mu)  ||d||  lg(rg) alpha_du alpha_pr  ls
 110  2.2659587e+03 0.00e+00 7.89e+01  -2.5 1.62e+02    -  1.00e+00 2.50e-01f  3
 111  2.2659586e+03 0.00e+00 7.14e+01  -2.5 4.66e+01    -  1.00e+00 1.00e+00f  1
 112  2.2659589e+03 0.00e+00 9.83e+01  -2.5 5.54e+01    -  1.00e+00 1.00e+00f  1
 113  2.2659584e+03 0.00e+00 6.37e+01  -2.5 4.83e+01    -  1.00e+00 1.00e+00f  1
 114  2.2659601e+03 0.00e+00 1.85e+02  -2.5 7.87e+01    -  1.00e+00 1.00e+00f  1
 115  2.2659582e+03 0.00e+00 2.46e+01  -2.5 3.81e+01    -  1.00e+00 1.00e+00f  1
 116  2.2659586e+03 0.00e+00 1.02e+02  -2.5 2.20e+02    -  1.00e+00 2.50e-01f  3
 117  2.2659589e+03 0.00e+00 1.38e+02  -2.5 7.72e+01    -  1.00e+00 1.00e+00f  1
 118  2.2659584e+03 0.00e+00 8.49e+01  -2.5 6.59e+01    -  1.00e+00 1.00e+00f  1
 119  2.2659603e+03 0.00e+00 2.73e+02  -2.5 1.12e+02    -  1.00e+00 1.00e+00f  1
iter    objective    inf_pr   inf_du lg(mu)  ||d||  lg(rg) alpha_du alpha_pr  ls
 120  2.2659582e+03 0.00e+00 2.86e+01  -2.5 5.02e+01    -  1.00e+00 1.00e+00f  1
 121  2.2659588e+03 0.00e+00 1.72e+02  -2.5 3.45e+02    -  1.00e+00 2.50e-01f  3
 122  2.2659585e+03 0.00e+00 1.29e+02  -2.5 9.12e+01    -  1.00e+00 1.00e+00f  1
 123  2.2659593e+03 0.00e+00 2.56e+02  -2.5 1.26e+02    -  1.00e+00 1.00e+00f  1
 124  2.2659583e+03 0.00e+00 7.87e+01  -2.5 8.21e+01    -  1.00e+00 1.00e+00f  1
 125  2.2659591e+03 0.00e+00 2.68e+02  -2.5 2.47e+02    -  1.00e+00 5.00e-01f  2
 126  2.2659583e+03 0.00e+00 1.07e+02  -2.5 9.92e+01    -  1.00e+00 1.00e+00f  1
 127  2.2659587e+03 0.00e+00 2.38e+02  -2.5 2.39e+02    -  1.00e+00 5.00e-01f  2
 128  2.2659585e+03 0.00e+00 1.96e+02  -2.5 1.35e+02    -  1.00e+00 1.00e+00f  1
 129  2.2659591e+03 0.00e+00 3.44e+02  -2.5 1.78e+02    -  1.00e+00 1.00e+00f  1
iter    objective    inf_pr   inf_du lg(mu)  ||d||  lg(rg) alpha_du alpha_pr  ls
 130  2.2659583e+03 0.00e+00 1.35e+02  -2.5 1.27e+02    -  1.00e+00 1.00e+00f  1
 131  2.2659588e+03 0.00e+00 3.13e+02  -2.5 3.12e+02    -  1.00e+00 5.00e-01f  2
 132  2.2659585e+03 0.00e+00 2.42e+02  -2.5 1.71e+02    -  1.00e+00 1.00e+00f  1
 133  2.2659593e+03 0.00e+00 4.80e+02  -2.5 2.38e+02    -  1.00e+00 1.00e+00f  1
 134  2.2659583e+03 0.00e+00 1.46e+02  -2.5 1.54e+02    -  1.00e+00 1.00e+00f  1
 135  2.2659591e+03 0.00e+00 5.06e+02  -2.5 4.67e+02    -  1.00e+00 5.00e-01f  2
 136  2.2659583e+03 0.00e+00 1.95e+02  -2.5 1.85e+02    -  1.00e+00 1.00e+00f  1
 137  2.2659588e+03 0.00e+00 4.56e+02  -2.5 4.56e+02    -  1.00e+00 5.00e-01f  2
 138  2.2659585e+03 0.00e+00 3.47e+02  -2.5 2.48e+02    -  1.00e+00 1.00e+00f  1
 139  2.2659593e+03 0.00e+00 7.06e+02  -2.5 3.48e+02    -  1.00e+00 1.00e+00f  1
iter    objective    inf_pr   inf_du lg(mu)  ||d||  lg(rg) alpha_du alpha_pr  ls
 140  2.2659583e+03 0.00e+00 2.03e+02  -2.5 2.20e+02    -  1.00e+00 1.00e+00f  1
 141  2.2659592e+03 0.00e+00 7.66e+02  -2.5 6.98e+02    -  1.00e+00 5.00e-01f  2
 142  2.2659583e+03 0.00e+00 2.53e+02  -2.5 2.58e+02    -  1.00e+00 1.00e+00f  1
 143  2.2659589e+03 0.00e+00 7.45e+02  -2.5 7.20e+02    -  1.00e+00 5.00e-01f  2
 144  2.2659583e+03 0.00e+00 3.85e+02  -2.5 3.25e+02    -  1.00e+00 1.00e+00f  1
 145  2.2659612e+03 0.00e+00 1.67e+03  -2.5 6.28e+02    -  1.00e+00 1.00e+00f  1
 146  2.2659582e+03 0.00e+00 8.32e+01  -2.5 2.25e+02    -  1.00e+00 1.00e+00f  1
 147  2.2659602e+03 0.00e+00 1.62e+03  -2.5 2.51e+03    -  1.00e+00 2.50e-01f  3
 148  2.2659582e+03 0.00e+00 1.59e+02  -2.5 2.89e+02    -  1.00e+00 1.00e+00f  1
 149  2.2659587e+03 0.00e+00 9.55e+02  -2.5 1.99e+03    -  1.00e+00 2.50e-01f  3
iter    objective    inf_pr   inf_du lg(mu)  ||d||  lg(rg) alpha_du alpha_pr  ls
 150  2.2659585e+03 0.00e+00 7.42e+02  -2.5 5.29e+02    -  1.00e+00 1.00e+00f  1
 151  2.2659590e+03 0.00e+00 1.35e+03  -2.5 7.06e+02    -  1.00e+00 1.00e+00f  1
 152  2.2659583e+03 0.00e+00 4.86e+02  -2.5 4.86e+02    -  1.00e+00 1.00e+00f  1
 153  2.2659588e+03 0.00e+00 1.26e+03  -2.5 1.27e+03    -  1.00e+00 5.00e-01f  2
 154  2.2659584e+03 0.00e+00 8.04e+02  -2.5 6.33e+02    -  1.00e+00 1.00e+00f  1
 155  2.2659597e+03 0.00e+00 2.26e+03  -2.5 1.02e+03    -  1.00e+00 1.00e+00f  1
 156  2.2659582e+03 0.00e+00 3.19e+02  -2.5 4.96e+02    -  1.00e+00 1.00e+00f  1
 157  2.2659585e+03 0.00e+00 1.16e+03  -2.5 2.69e+03    -  1.00e+00 2.50e-01f  3
 158  2.2659589e+03 0.00e+00 1.93e+03  -2.5 1.05e+03    -  1.00e+00 1.00e+00f  1
 159  2.2659583e+03 0.00e+00 7.45e+02  -2.5 7.38e+02    -  1.00e+00 1.00e+00f  1
iter    objective    inf_pr   inf_du lg(mu)  ||d||  lg(rg) alpha_du alpha_pr  ls
 160  2.2659586e+03 0.00e+00 1.72e+03  -2.5 1.82e+03    -  1.00e+00 5.00e-01f  2
 161  2.2659584e+03 0.00e+00 1.32e+03  -2.5 9.87e+02    -  1.00e+00 1.00e+00f  1
 162  2.2659590e+03 0.00e+00 2.55e+03  -2.5 1.35e+03    -  1.00e+00 1.00e+00f  1
 163  2.2659583e+03 0.00e+00 7.90e+02  -2.5 8.74e+02    -  1.00e+00 1.00e+00f  1
 164  2.2659588e+03 0.00e+00 2.50e+03  -2.5 2.54e+03    -  1.00e+00 5.00e-01f  2
 165  2.2659583e+03 0.00e+00 1.13e+03  -2.5 1.07e+03    -  1.00e+00 1.00e+00f  1
 166  2.2659585e+03 0.00e+00 2.00e+03  -2.5 2.25e+03    -  1.00e+00 5.00e-01f  2
 167  2.2659585e+03 0.00e+00 2.30e+03  -2.5 1.52e+03    -  1.00e+00 1.00e+00f  1
 168  2.2659584e+03 0.00e+00 1.94e+03  -2.5 1.46e+03    -  1.00e+00 1.00e+00f  1
 169  2.2659587e+03 0.00e+00 3.10e+03  -2.5 1.84e+03    -  1.00e+00 1.00e+00f  1
iter    objective    inf_pr   inf_du lg(mu)  ||d||  lg(rg) alpha_du alpha_pr  ls
 170  2.2659583e+03 0.00e+00 1.39e+03  -2.5 1.37e+03    -  1.00e+00 1.00e+00f  1
 171  2.2659584e+03 0.00e+00 2.47e+03  -2.5 2.90e+03    -  1.00e+00 5.00e-01f  2
 172  2.2659585e+03 0.00e+00 2.79e+03  -2.5 1.93e+03    -  1.00e+00 1.00e+00f  1
 173  2.2659584e+03 0.00e+00 2.38e+03  -2.5 1.86e+03    -  1.00e+00 1.00e+00f  1
 174  2.2659586e+03 0.00e+00 3.60e+03  -2.5 2.30e+03    -  1.00e+00 1.00e+00f  1
 175  2.2659583e+03 0.00e+00 1.75e+03  -2.5 1.75e+03    -  1.00e+00 1.00e+00f  1
 176  2.2659597e+03 0.00e+00 7.60e+03  -2.5 3.41e+03    -  1.00e+00 1.00e+00f  1
 177  2.2659582e+03 0.00e+00 3.69e+02  -2.5 1.13e+03    -  1.00e+00 1.00e+00f  1
 178  2.2659586e+03 0.00e+00 5.01e+03  -2.5 1.11e+04    -  1.00e+00 2.50e-01f  3
 179  2.2659582e+03 0.00e+00 1.30e+03  -2.5 1.76e+03    -  1.00e+00 1.00e+00f  1
iter    objective    inf_pr   inf_du lg(mu)  ||d||  lg(rg) alpha_du alpha_pr  ls
 180  2.2659585e+03 0.00e+00 4.30e+03  -2.5 5.25e+03    -  1.00e+00 5.00e-01f  2
 181  2.2659582e+03 0.00e+00 1.81e+03  -2.5 2.09e+03    -  1.00e+00 1.00e+00f  1
 182  2.2659593e+03 0.00e+00 8.98e+03  -2.5 4.31e+03    -  1.00e+00 1.00e+00f  1
 183  2.2659582e+03 0.00e+00 3.08e+02  -2.5 1.25e+03    -  1.00e+00 1.00e+00f  1
 184  2.2659584e+03 0.00e+00 5.04e+03  -2.5 1.30e+04    -  1.00e+00 2.50e-01f  3
 185  2.2659582e+03 0.00e+00 1.36e+03  -2.5 2.04e+03    -  1.00e+00 1.00e+00f  1
 186  2.2659583e+03 0.00e+00 3.63e+03  -2.5 5.46e+03    -  1.00e+00 5.00e-01f  2
 187  2.2659582e+03 0.00e+00 2.14e+03  -2.5 2.53e+03    -  1.00e+00 1.00e+00f  1
 188  2.2659584e+03 0.00e+00 4.77e+03  -2.5 3.68e+03    -  1.00e+00 1.00e+00f  1
 189  2.2659582e+03 0.00e+00 8.87e+02  -2.5 1.82e+03    -  1.00e+00 1.00e+00f  1
iter    objective    inf_pr   inf_du lg(mu)  ||d||  lg(rg) alpha_du alpha_pr  ls
 190  2.2659583e+03 0.00e+00 3.46e+03  -2.5 5.95e+03    -  1.00e+00 5.00e-01f  2
 191  2.2659582e+03 0.00e+00 1.18e+03  -2.5 2.07e+03    -  1.00e+00 1.00e+00f  1
 192  2.2659583e+03 0.00e+00 5.08e+03  -2.5 4.03e+03    -  1.00e+00 1.00e+00f  1
 193  2.2659582e+03 0.00e+00 2.17e+02  -2.5 1.08e+03    -  1.00e+00 1.00e+00f  1
 194  2.2659582e+03 0.00e+00 2.57e+03  -2.5 5.73e+03    -  1.00e+00 5.00e-01f  2
 195  2.2659582e+03 0.00e+00 3.14e+02  -2.5 1.17e+03    -  1.00e+00 1.00e+00f  1
 196  2.2659582e+03 0.00e+00 2.23e+03  -2.5 2.83e+03    -  1.00e+00 1.00e+00f  1
 197  2.2659582e+03 0.00e+00 2.22e+01  -2.5 3.87e+02    -  1.00e+00 1.00e+00f  1
 198  2.2659582e+03 0.00e+00 2.72e+02  -2.5 1.01e+03    -  1.00e+00 1.00e+00f  1
 199  2.2659582e+03 0.00e+00 1.07e-01  -2.5 3.25e+01    -  1.00e+00 1.00e+00f  1
iter    objective    inf_pr   inf_du lg(mu)  ||d||  lg(rg) alpha_du alpha_pr  ls
 200  2.2659582e+03 0.00e+00 7.06e-01  -3.8 1.56e+00    -  1.00e+00 1.00e+00f  1
 201  2.2659582e+03 0.00e+00 2.21e-02  -3.8 9.21e+00    -  1.00e+00 1.00e+00f  1
 202  2.2659582e+03 0.00e+00 1.28e-06  -3.8 7.11e-02    -  1.00e+00 1.00e+00f  1
 203  2.2659582e+03 0.00e+00 2.13e-03  -5.7 5.77e-02    -  1.00e+00 1.00e+00f  1
 204  2.2659582e+03 0.00e+00 9.15e-10  -5.7 3.33e-06    -  1.00e+00 1.00e+00f  1
 205  2.2659582e+03 0.00e+00 3.28e-07  -8.6 6.98e-04    -  1.00e+00 1.00e+00f  1
 206  2.2659582e+03 0.00e+00 2.43e-07  -8.6 3.06e-02    -  1.00e+00 1.00e+00f  1
 207  2.2659582e+03 0.00e+00 1.56e-07  -8.6 2.45e-02    -  1.00e+00 1.00e+00f  1
 208  2.2659582e+03 0.00e+00 2.92e-07  -8.6 3.35e-02    -  1.00e+00 1.00e+00f  1
 209  2.2659582e+03 0.00e+00 4.96e-07  -8.6 4.37e-02    -  1.00e+00 1.00e+00f  1
iter    objective    inf_pr   inf_du lg(mu)  ||d||  lg(rg) alpha_du alpha_pr  ls
 210  2.2659582e+03 0.00e+00 5.95e-07  -8.6 4.78e-02    -  1.00e+00 1.00e+00f  1
 211  2.2659582e+03 0.00e+00 4.04e-08  -8.6 1.24e-02    -  1.00e+00 1.00e+00f  1
 212  2.2659582e+03 0.00e+00 7.78e-07  -8.6 5.47e-02    -  1.00e+00 1.00e+00f  1
 213  2.2659582e+03 0.00e+00 2.52e-06  -8.6 9.83e-02    -  1.00e+00 1.00e+00f  1
 214  2.2659582e+03 0.00e+00 9.40e-07  -8.6 6.01e-02    -  1.00e+00 1.00e+00f  1
 215  2.2659582e+03 0.00e+00 9.21e-08  -8.6 1.88e-02    -  1.00e+00 1.00e+00f  1
 216  2.2659582e+03 0.00e+00 1.96e-08  -8.6 8.84e-03    -  1.00e+00 1.00e+00f  1
 217  2.2659582e+03 0.00e+00 1.38e-07  -9.0 2.30e-02    -  1.00e+00 1.00e+00f  1
 218  2.2659582e+03 0.00e+00 1.94e-06  -9.0 8.63e-02    -  1.00e+00 1.00e+00f  1
 219  2.2659582e+03 0.00e+00 4.80e-06  -9.0 1.36e-01    -  1.00e+00 1.00e+00f  1
iter    objective    inf_pr   inf_du lg(mu)  ||d||  lg(rg) alpha_du alpha_pr  ls
 220  2.2659582e+03 0.00e+00 1.76e-06  -9.0 8.22e-02    -  1.00e+00 1.00e+00f  1
 221  2.2659582e+03 0.00e+00 2.59e-06  -9.0 9.97e-02    -  1.00e+00 1.00e+00f  1
 222  2.2659582e+03 0.00e+00 2.23e-06  -9.0 9.25e-02    -  1.00e+00 1.00e+00f  1
 223  2.2659582e+03 0.00e+00 6.14e-08  -9.0 1.53e-02    -  1.00e+00 1.00e+00f  1
 224  2.2659582e+03 0.00e+00 2.17e-06  -9.0 9.12e-02    -  1.00e+00 1.00e+00f  1
 225  2.2659582e+03 0.00e+00 1.49e-05  -9.0 2.39e-01    -  1.00e+00 1.00e+00f  1
 226  2.2659582e+03 0.00e+00 4.92e-06  -9.0 1.37e-01    -  1.00e+00 1.00e+00f  1
 227  2.2659582e+03 0.00e+00 4.31e-07  -9.0 4.07e-02    -  1.00e+00 1.00e+00f  1
 228  2.2659582e+03 0.00e+00 4.07e-07  -9.0 3.95e-02    -  1.00e+00 1.00e+00f  1
 229  2.2659582e+03 0.00e+00 1.40e-06  -9.0 7.32e-02    -  1.00e+00 1.00e+00f  1
iter    objective    inf_pr   inf_du lg(mu)  ||d||  lg(rg) alpha_du alpha_pr  ls
 230  2.2659582e+03 0.00e+00 5.23e-08  -9.0 1.41e-02    -  1.00e+00 1.00e+00f  1
 231  2.2659582e+03 0.00e+00 1.22e-05  -9.0 2.16e-01    -  1.00e+00 1.00e+00f  1
 232  2.2659582e+03 0.00e+00 8.16e-07  -9.0 5.60e-02    -  1.00e+00 1.00e+00f  1
 233  2.2659582e+03 0.00e+00 3.64e-06  -9.0 1.18e-01    -  1.00e+00 1.00e+00f  1
 234  2.2659582e+03 0.00e+00 3.56e-06  -9.0 1.17e-01    -  1.00e+00 1.00e+00f  1
 235  2.2659582e+03 0.00e+00 4.48e-06  -9.0 1.31e-01    -  1.00e+00 1.00e+00f  1
 236  2.2659582e+03 0.00e+00 1.32e-08  -9.0 7.31e-03    -  1.00e+00 1.00e+00f  1
 237  2.2659582e+03 0.00e+00 1.21e-08  -9.0 6.81e-03    -  1.00e+00 1.00e+00f  1
 238  2.2659582e+03 0.00e+00 1.57e-08  -9.0 7.65e-03    -  1.00e+00 1.00e+00f  1
 239  2.2659582e+03 0.00e+00 2.33e-07  -9.0 2.99e-02    -  1.00e+00 1.00e+00f  1
iter    objective    inf_pr   inf_du lg(mu)  ||d||  lg(rg) alpha_du alpha_pr  ls
 240  2.2659582e+03 0.00e+00 9.38e-07  -9.0 6.00e-02    -  1.00e+00 1.00e+00f  1
 241  2.2659582e+03 0.00e+00 2.34e-06  -9.0 9.47e-02    -  1.00e+00 1.00e+00f  1
 242  2.2659582e+03 0.00e+00 4.89e-06  -9.0 1.37e-01    -  1.00e+00 1.00e+00f  1
 243  2.2659582e+03 0.00e+00 5.21e-07  -9.0 4.47e-02    -  1.00e+00 1.00e+00f  1
 244  2.2659582e+03 0.00e+00 5.89e-06  -9.0 1.50e-01    -  1.00e+00 1.00e+00f  1
 245  2.2659582e+03 0.00e+00 1.13e-06  -9.0 6.58e-02    -  1.00e+00 1.00e+00f  1
 246  2.2659582e+03 0.00e+00 3.22e-06  -9.0 1.11e-01    -  1.00e+00 1.00e+00f  1
 247  2.2659582e+03 0.00e+00 4.40e-07  -9.0 4.11e-02    -  1.00e+00 1.00e+00f  1
 248  2.2659582e+03 0.00e+00 6.00e-06  -9.0 1.52e-01    -  1.00e+00 1.00e+00f  1
 249  2.2659582e+03 0.00e+00 8.91e-07  -9.0 5.85e-02    -  1.00e+00 1.00e+00f  1
iter    objective    inf_pr   inf_du lg(mu)  ||d||  lg(rg) alpha_du alpha_pr  ls
 250  2.2659582e+03 0.00e+00 2.25e-07  -9.0 2.94e-02    -  1.00e+00 1.00e+00f  1
 251  2.2659582e+03 0.00e+00 6.44e-06  -9.0 1.57e-01    -  1.00e+00 1.00e+00f  1
 252  2.2659582e+03 0.00e+00 4.41e-06  -9.0 1.30e-01    -  1.00e+00 1.00e+00f  1
 253  2.2659582e+03 0.00e+00 1.93e-09  -9.0 2.40e-03    -  1.00e+00 1.00e+00f  1

Number of Iterations....: 253

                                   (scaled)                 (unscaled)
Objective...............:   1.5809278021822354e+02    2.2659582182824324e+03
Dual infeasibility......:   1.9280770614522706e-09    2.7635304135008198e-08
Constraint violation....:   0.0000000000000000e+00    0.0000000000000000e+00
Complementarity.........:   9.0909090909090858e-10    1.3030082801864329e-08
Overall NLP error.......:   1.9280770614522706e-09    2.7635304135008198e-08


Number of objective function evaluations             = 553
Number of objective gradient evaluations             = 254
Number of equality constraint evaluations            = 0
Number of inequality constraint evaluations          = 0
Number of equality constraint Jacobian evaluations   = 0
Number of inequality constraint Jacobian evaluations = 0
Number of Lagrangian Hessian evaluations             = 253
Total CPU secs in IPOPT (w/o function evaluations)   =      0.060
Total CPU secs in NLP function evaluations           =      0.004

EXIT: Optimal Solution Found.
 
Ipopt 3.12.8: Optimal Solution Found
